1863
43 33 49 11 78 48 10 80 54 64 14 51 97 35 63 56 86 16 7 99 87 74 71 36 84 47 32 3 27 94 13 21 9 25 19 34 76 95 22 26 88 82 67 30 93 70 91 85 31 79 23 28 24 29 96 1 58 72 98 44 57 37 40 6 59 69 83 42 20 61 45 53 50 68 2 81 92 15 75 77 12 18 46 38 66 89 62 60 55 52 17 5 8 73 65 4 41 90 39 
